# Solution for model micodag
# Objective value = 1.9495209932002361e+01
s_0_1 0
s_1_0 0
s_0_2 0
s_2_0 1.7192054483249297e-01
s_1_2 0
s_2_1 2.5271527319918174e-01
s_1_3 0
s_3_1 1.8856276036961939e-01
s_1_9 0
s_9_1 0
s_1_12 0
s_12_1 7.8168432474670091e-01
s_1_13 0
s_13_1 1.9905864283983554e-01
s_2_3 0
s_3_2 2.5251729222086183e-01
s_2_4 0
s_4_2 2.8720779486776982e-01
s_2_6 0
s_6_2 0
s_2_8 0
s_8_2 1.9890556726725261e-01
s_3_4 0
s_4_3 0.571466809637803
s_3_6 0
s_6_3 0
s_3_7 0
s_7_3 0
s_3_8 0
s_8_3 3.8101747052783441e-01
s_3_9 0
s_9_3 3.6881857141226204e-01
s_3_12 0
s_12_3 0
s_3_13 0
s_13_3 3.7544199217776741e-01
s_4_5 0
s_5_4 0
s_4_6 0
s_6_4 3.7749560332681087e-01
s_4_7 0
s_7_4 0
s_4_8 0
s_8_4 0
s_4_11 0
s_11_4 4.2695418480081671e-01
s_5_6 0
s_6_5 4.7498689856223386e-01
s_5_7 0
s_7_5 0.837430572804426
s_5_14 0
s_14_5 3.3137337583170368e-01
s_6_8 0
s_8_6 4.3477726712064246e-01
s_7_8 0
s_8_7 0
s_7_9 0
s_9_7 3.5447819029193184e-01
s_7_10 0
s_10_7 1.8801494067935787e-01
s_7_11 0
s_11_7 3.9544935204722886e-01
s_8_11 0
s_11_8 2.1099991391719808e-01
s_9_12 0
s_12_9 3.2799697234455794e-01
s_12_13 0
s_13_12 2.2240981374421054e-01
s_0_0 1.0487105691942915e+00
s_1_1 7.5796126569519817e-01
s_2_2 6.5207155465091615e-01
s_3_3 6.3661995308388031e-01
s_4_4 1.0373311786029982e+00
s_5_5 6.2652601344413572e-01
s_6_6 9.3563801004163327e-01
s_7_7 1.2066908441760034e+00
s_8_8 6.1518709226053270e-01
s_9_9 1.1249982938566370e+00
s_10_10 6.6247024779555286e-01
s_11_11 6.1347359076927876e-01
s_12_12 1.0487895397998064e+00
s_13_13 6.8471726024219226e-01
s_14_14 1.0650269749848089e+00
Gamma_0_0 1.0240657055063858e+00
Gamma_0_1 0
Gamma_0_2 0
Gamma_0_3 0
Gamma_0_4 0
Gamma_0_5 0
Gamma_0_6 0
Gamma_0_7 0
Gamma_0_8 0
Gamma_0_9 0
Gamma_0_10 0
Gamma_0_11 0
Gamma_0_12 0
Gamma_0_13 0
Gamma_0_14 0
Gamma_1_0 0
Gamma_1_1 8.7060970916662728e-01
Gamma_1_2 0
Gamma_1_3 0
Gamma_1_4 0
Gamma_1_5 0
Gamma_1_6 0
Gamma_1_7 0
Gamma_1_8 0
Gamma_1_9 0
Gamma_1_10 0
Gamma_1_11 0
Gamma_1_12 0
Gamma_1_13 0
Gamma_1_14 0
Gamma_2_0 -4.1463302429075027e-01
Gamma_2_1 -5.0270794025873788e-01
Gamma_2_2 8.0750947650842841e-01
Gamma_2_3 0
Gamma_2_4 0
Gamma_2_5 0
Gamma_2_6 0
Gamma_2_7 0
Gamma_2_8 0
Gamma_2_9 0
Gamma_2_10 0
Gamma_2_11 0
Gamma_2_12 0
Gamma_2_13 0
Gamma_2_14 0
Gamma_3_0 0
Gamma_3_1 4.3423813785712112e-01
Gamma_3_2 5.0251098716432341e-01
Gamma_3_3 7.9788467405000352e-01
Gamma_3_4 0
Gamma_3_5 0
Gamma_3_6 0
Gamma_3_7 0
Gamma_3_8 0
Gamma_3_9 0
Gamma_3_10 0
Gamma_3_11 0
Gamma_3_12 0
Gamma_3_13 0
Gamma_3_14 0
Gamma_4_0 0
Gamma_4_1 0
Gamma_4_2 5.3591771277666389e-01
Gamma_4_3 7.5595423779340243e-01
Gamma_4_4 1.0184945648372397e+00
Gamma_4_5 0
Gamma_4_6 0
Gamma_4_7 0
Gamma_4_8 0
Gamma_4_9 0
Gamma_4_10 0
Gamma_4_11 0
Gamma_4_12 0
Gamma_4_13 0
Gamma_4_14 0
Gamma_5_0 0
Gamma_5_1 0
Gamma_5_2 0
Gamma_5_3 0
Gamma_5_4 0
Gamma_5_5 7.9153396228092177e-01
Gamma_5_6 0
Gamma_5_7 0
Gamma_5_8 0
Gamma_5_9 0
Gamma_5_10 0
Gamma_5_11 0
Gamma_5_12 0
Gamma_5_13 0
Gamma_5_14 0
Gamma_6_0 0
Gamma_6_1 0
Gamma_6_2 0
Gamma_6_3 0
Gamma_6_4 -6.1440670839990963e-01
Gamma_6_5 6.8919293275702909e-01
Gamma_6_6 9.6728383116933847e-01
Gamma_6_7 0
Gamma_6_8 0
Gamma_6_9 0
Gamma_6_10 0
Gamma_6_11 0
Gamma_6_12 0
Gamma_6_13 0
Gamma_6_14 0
Gamma_7_0 0
Gamma_7_1 0
Gamma_7_2 0
Gamma_7_3 0
Gamma_7_4 0
Gamma_7_5 -9.1511232797095832e-01
Gamma_7_6 0
Gamma_7_7 1.0984948084429
Gamma_7_8 0
Gamma_7_9 0
Gamma_7_10 0
Gamma_7_11 0
Gamma_7_12 0
Gamma_7_13 0
Gamma_7_14 0
Gamma_8_0 0
Gamma_8_1 0
Gamma_8_2 4.4598830395791045e-01
Gamma_8_3 6.1726612617884291e-01
Gamma_8_4 0
Gamma_8_5 0
Gamma_8_6 -6.5937642293354981e-01
Gamma_8_7 0
Gamma_8_8 7.8433863366567169e-01
Gamma_8_9 0
Gamma_8_10 0
Gamma_8_11 0
Gamma_8_12 0
Gamma_8_13 0
Gamma_8_14 0
Gamma_9_0 0
Gamma_9_1 0
Gamma_9_2 0
Gamma_9_3 6.0730434825733137e-01
Gamma_9_4 0
Gamma_9_5 0
Gamma_9_6 0
Gamma_9_7 -0.595380710379445
Gamma_9_8 0
Gamma_9_9 1.0606593674958222e+00
Gamma_9_10 0
Gamma_9_11 0
Gamma_9_12 0
Gamma_9_13 0
Gamma_9_14 0
Gamma_10_0 0
Gamma_10_1 0
Gamma_10_2 0
Gamma_10_3 0
Gamma_10_4 0
Gamma_10_5 0
Gamma_10_6 0
Gamma_10_7 0.433606896485006
Gamma_10_8 0
Gamma_10_9 0
Gamma_10_10 8.1392275296587790e-01
Gamma_10_11 0
Gamma_10_12 0
Gamma_10_13 0
Gamma_10_14 0
Gamma_11_0 0
Gamma_11_1 0
Gamma_11_2 0
Gamma_11_3 0
Gamma_11_4 -6.5341731290257210e-01
Gamma_11_5 0
Gamma_11_6 0
Gamma_11_7 6.2884763818211953e-01
Gamma_11_8 4.5934726941302167e-01
Gamma_11_9 0
Gamma_11_10 0
Gamma_11_11 7.8324554947301139e-01
Gamma_11_12 0
Gamma_11_13 0
Gamma_11_14 0
Gamma_12_0 0
Gamma_12_1 -8.8412913352445410e-01
Gamma_12_2 0
Gamma_12_3 0
Gamma_12_4 0
Gamma_12_5 0
Gamma_12_6 0
Gamma_12_7 0
Gamma_12_8 0
Gamma_12_9 -0.572710199267097
Gamma_12_10 0
Gamma_12_11 0
Gamma_12_12 1.0241042621724639e+00
Gamma_12_13 0
Gamma_12_14 0
Gamma_13_0 0
Gamma_13_1 4.4615988483932117e-01
Gamma_13_2 0
Gamma_13_3 6.1273321452143292e-01
Gamma_13_4 0
Gamma_13_5 0
Gamma_13_6 0
Gamma_13_7 0
Gamma_13_8 0
Gamma_13_9 0
Gamma_13_10 0
Gamma_13_11 0
Gamma_13_12 4.7160344967378176e-01
Gamma_13_13 8.2747644089858674e-01
Gamma_13_14 0
Gamma_14_0 0
Gamma_14_1 0
Gamma_14_2 0
Gamma_14_3 0
Gamma_14_4 0
Gamma_14_5 5.7565039375623184e-01
Gamma_14_6 0
Gamma_14_7 0
Gamma_14_8 0
Gamma_14_9 0
Gamma_14_10 0
Gamma_14_11 0
Gamma_14_12 0
Gamma_14_13 0
Gamma_14_14 1.0320014413676024e+00
psi_0 6
psi_1 6
psi_2 5
psi_3 4
psi_4 3
psi_5 4
psi_6 2
psi_7 3
psi_8 1
psi_9 2
psi_10 0
psi_11 0
psi_12 1
psi_13 0
psi_14 0
g_0_0 0
g_0_1 0
g_0_2 0
g_0_3 0
g_0_4 0
g_0_5 0
g_0_6 0
g_0_7 0
g_0_8 0
g_0_9 0
g_0_10 0
g_0_11 0
g_0_12 0
g_0_13 0
g_0_14 0
g_1_0 0
g_1_1 0
g_1_2 0
g_1_3 0
g_1_4 0
g_1_5 0
g_1_6 0
g_1_7 0
g_1_8 0
g_1_9 0
g_1_10 0
g_1_11 0
g_1_12 0
g_1_13 0
g_1_14 0
g_2_0 1
g_2_1 1
g_2_2 0
g_2_3 0
g_2_4 0
g_2_5 0
g_2_6 0
g_2_7 0
g_2_8 0
g_2_9 0
g_2_10 0
g_2_11 0
g_2_12 0
g_2_13 0
g_2_14 0
g_3_0 0
g_3_1 1
g_3_2 1
g_3_3 0
g_3_4 0
g_3_5 0
g_3_6 0
g_3_7 0
g_3_8 0
g_3_9 0
g_3_10 0
g_3_11 0
g_3_12 0
g_3_13 0
g_3_14 0
g_4_0 0
g_4_1 0
g_4_2 1
g_4_3 1
g_4_4 0
g_4_5 0
g_4_6 0
g_4_7 0
g_4_8 0
g_4_9 0
g_4_10 0
g_4_11 0
g_4_12 0
g_4_13 0
g_4_14 0
g_5_0 0
g_5_1 0
g_5_2 0
g_5_3 0
g_5_4 0
g_5_5 0
g_5_6 0
g_5_7 0
g_5_8 0
g_5_9 0
g_5_10 0
g_5_11 0
g_5_12 0
g_5_13 0
g_5_14 0
g_6_0 0
g_6_1 0
g_6_2 0
g_6_3 0
g_6_4 1
g_6_5 1
g_6_6 0
g_6_7 0
g_6_8 0
g_6_9 0
g_6_10 0
g_6_11 0
g_6_12 0
g_6_13 0
g_6_14 0
g_7_0 0
g_7_1 0
g_7_2 0
g_7_3 0
g_7_4 0
g_7_5 1
g_7_6 0
g_7_7 0
g_7_8 0
g_7_9 0
g_7_10 0
g_7_11 0
g_7_12 0
g_7_13 0
g_7_14 0
g_8_0 0
g_8_1 0
g_8_2 1
g_8_3 1
g_8_4 0
g_8_5 0
g_8_6 1
g_8_7 0
g_8_8 0
g_8_9 0
g_8_10 0
g_8_11 0
g_8_12 0
g_8_13 0
g_8_14 0
g_9_0 0
g_9_1 0
g_9_2 0
g_9_3 1
g_9_4 0
g_9_5 0
g_9_6 0
g_9_7 1
g_9_8 0
g_9_9 0
g_9_10 0
g_9_11 0
g_9_12 0
g_9_13 0
g_9_14 0
g_10_0 0
g_10_1 0
g_10_2 0
g_10_3 0
g_10_4 0
g_10_5 0
g_10_6 0
g_10_7 1
g_10_8 0
g_10_9 0
g_10_10 0
g_10_11 0
g_10_12 0
g_10_13 0
g_10_14 0
g_11_0 0
g_11_1 0
g_11_2 0
g_11_3 0
g_11_4 1
g_11_5 0
g_11_6 0
g_11_7 1
g_11_8 1
g_11_9 0
g_11_10 0
g_11_11 0
g_11_12 0
g_11_13 0
g_11_14 0
g_12_0 0
g_12_1 1
g_12_2 0
g_12_3 0
g_12_4 0
g_12_5 0
g_12_6 0
g_12_7 0
g_12_8 0
g_12_9 1
g_12_10 0
g_12_11 0
g_12_12 0
g_12_13 0
g_12_14 0
g_13_0 0
g_13_1 1
g_13_2 0
g_13_3 1
g_13_4 0
g_13_5 0
g_13_6 0
g_13_7 0
g_13_8 0
g_13_9 0
g_13_10 0
g_13_11 0
g_13_12 1
g_13_13 0
g_13_14 0
g_14_0 0
g_14_1 0
g_14_2 0
g_14_3 0
g_14_4 0
g_14_5 1
g_14_6 0
g_14_7 0
g_14_8 0
g_14_9 0
g_14_10 0
g_14_11 0
g_14_12 0
g_14_13 0
g_14_14 0
T_0 -4.7561380184745872e-02
T_1 2.7712299531141582e-01
T_2 4.2760097668006836e-01
T_3 4.5158242142099425e-01
T_4 -3.6651240463683621e-02
T_5 0.467564983649865
T_6 0.0665266187168072
T_7 -1.8788177357879476e-01
T_8 4.8582884238186352e-01
T_9 -1.1778151908335133e-01
T_10 4.1177963111803706e-01
T_11 4.8861806258855722e-01
T_12 -4.7636679923911629e-02
T_13 3.7874928469878455e-01
T_14 -6.3000127464860611e-02
